40
    12    67     9    86    83    64    94    80    46    97    77    78     5    54    14    36    96    82    41    12    79    77    71    68    47    89    97    67    16    22    89    78    34    34    94    72    75    33    39    22
    10     6    10     6     2     1     3     7    10    10     8     1     1    10     9     4     1     4     1     4     4     4     6     1     3     4     5     5     9     7     6     5     2    10     8     5    10     6     5     7
  1366  1541  1552  1418  1301  1363  1194  1349  1480  1311  1631  1335  1378  1443  1181  1258  1205  1521  1412  1251  1398  1347  1620  1449  1410  1327  1466  1510  1539  1412  1515  1297  1239  1201  1213  1332  1416  1205  1285  1614
